72
120
84	7
82	4
81	6
80	3
79	4
78	2
77	5
76	4
75	5
74	3
73	3
72	4
71	3
70	2
69	8
68	1
67	4
66	3
65	3
64	4
63	8
62	4
61	6
60	5
59	5
58	6
57	4
56	5
55	4
54	4
53	4
52	3
51	4
50	5
49	3
48	3
47	3
46	4
45	3
44	4
43	4
42	2
41	8
40	2
39	3
38	5
37	3
36	3
35	3
34	2
33	5
32	2
31	4
30	3
29	1
28	5
27	8
26	7
25	6
24	4
23	6
22	3
21	3
20	5
19	3
18	1
17	6
16	2
15	6
14	4
13	10
12	6
